Argumentos: 
./solver.release -i 26 -t 86400 -a 7 -h 86400 -w Testes/Mvic-i26 -m modeloCom2345.mod -o modeloCom2345.mod 
Seed: 1622676164
hidden-TXT/Sc-n110w4.txt
hidden-TXT/H0-n110w4-1.txt
hidden-TXT/WD-n110w4-4.txt hidden-TXT/WD-n110w4-8.txt hidden-TXT/WD-n110w4-7.txt hidden-TXT/WD-n110w4-2.txt 
Reading model section from modeloCom2345.mod...
367 lines were read
Reading data section from Testes/Mvic-i26/26.dat...
19773 lines were read
Generating obj...
Generating H1turnoDia...
Generating H2coberturaMinima...
Generating H3AsucessaoTurnos...
Generating H3BsucessaoTurnos...
Generating H4qualificacao...
Generating S1coberturaOtima...
Generating S2d...
Generating S2dHist...
Generating S2b...
Generating S2bHist...
Generating aux1S2a...
Generating auxS2a...
Generating aux3S2a...
Generating aux4S2a...
Generating s2aMin2...
Generating s2aHistMin2...
Generating s2aMin3...
Generating s2aHistMin3h1...
Generating s2aHistMin3h2...
Generating s2aMin4...
Generating s2aHistMin4h1...
Generating s2aHistMin4h2...
Generating s2aHistMin4h3...
Generating s2aMin5...
Generating s2aHistMin5h1...
Generating s2aHistMin5h2...
Generating s2aHistMin5h3...
Generating s2aHistMin5h4...
Generating auxS2b...
Generating aux1S2b...
Generating aux3S2b...
Generating aux4S2b...
Generating s2b...
Generating s2bHist...
Generating s2bMin3turnos...
Generating s2bHistMin3h1turnos...
Generating s2bHistMin3h2turnos...
Generating s2bMin4...
Generating s2bHistMin4h1...
Generating s2bHistMin4h2...
Generating s2bHistMin4h3...
Generating s2bMin5...
Generating s2bHistMin5h1...
Generating s2bHistMin5h2...
Generating s2bHistMin5h3...
Generating s2bHistMin5h34...
Generating auxS5...
Generating S6a...
Generating S6b...
Generating auxS7...
Generating S7...
Model has been successfully generated
Writing problem data to `Testes/Mvic-i26/26.lp'...
716831 lines were written
CPX0000  Tried aggregator 2 times.
CPX0000  MIP Presolve eliminated 24379 rows and 51911 columns.
CPX0000  MIP Presolve modified 5955 coefficients.
CPX0000  Aggregator did 343 substitutions.
CPX0000  Reduced MIP has 69368 rows, 79053 columns, and 530701 nonzeros.
CPX0000  Reduced MIP has 78413 binaries, 640 generals, 0 SOSs, and 0 indicators.
CPX0000  Presolve time = 0.95 sec. (593.84 ticks)
CPX0000  Found incumbent of value 1506555.000000 after 1.87 sec. (1416.12 ticks)
[1m[30m[ZEN] [0m00:00:01 [1m[34m1506555.00[1m[32m  100.00%
[0mCPX0000  Probing time = 0.06 sec. (21.58 ticks)
CPX0000  Tried aggregator 1 time.
CPX0000  Reduced MIP has 69368 rows, 79053 columns, and 530701 nonzeros.
CPX0000  Reduced MIP has 78413 binaries, 640 generals, 0 SOSs, and 0 indicators.
CPX0000  Presolve time = 0.31 sec. (213.05 ticks)
CPX0000  Probing time = 0.06 sec. (20.79 ticks)
CPX0000  Clique table members: 16423.
CPX0000  MIP emphasis: balance optimality and feasibility.
CPX0000  MIP search method: dynamic search.
CPX0000  Parallel mode: none, using 1 thread.
CPX0000  Root relaxation solution time = 350.69 sec. (76533.39 ticks)
CPX0000
CPX0000          Nodes                                         Cuts/
CPX0000     Node  Left     Objective  IInf  Best Integer    Best Bound    ItCnt     Gap
CPX0000
CPX0000  *     0+    0                      1506555.0000        0.0000    69611  100.00%
CPX0000        0     0      862.7560  7813  1506555.0000      862.7560    69611   99.94%
CPX0000        0     0     1069.8973  7790  1506555.0000    Cuts: 3855   115634   99.93%
CPX0000        0     0     1218.4826  8335  1506555.0000    Cuts: 3205   164296   99.92%
CPX0000        0     0     1265.8861  8626  1506555.0000    Cuts: 2957   218745   99.92%
CPX0000  *     0+    0                       312825.0000     1265.8861   218745   99.60%
[1m[30m[ZEN] [0m00:29:18 [1m[34m 312825.00[1m[32m   99.60%
[0mCPX0000        0     0     1281.5830  8855   312825.0000    Cuts: 2891   268938   99.59%
CPX0000        0     0     1298.6773  9312   312825.0000    Cuts: 2651   327771   99.58%
CPX0000        0     0     1315.7929  9632   312825.0000    Cuts: 2812   385305   99.58%
CPX0000        0     0     1323.2922  9570   312825.0000    Cuts: 2906   445532   99.58%
CPX0000        0     0     1335.1336  9650   312825.0000    Cuts: 2882   509920   99.57%
CPX0000        0     0     1349.0973  9563   312825.0000    Cuts: 2765   570121   99.57%
CPX0000        0     0     1366.6889  9672   312825.0000    Cuts: 2819   626593   99.56%
CPX0000        0     0     1377.3999 10016   312825.0000    Cuts: 2989   691538   99.56%
CPX0000        0     0     1384.8297  9943   312825.0000    Cuts: 2935   778967   99.56%
CPX0000        0     0     1402.5156  9985   312825.0000    Cuts: 3047   847529   99.55%
CPX0000        0     0     1411.1864  9971   312825.0000    Cuts: 3062   918053   99.55%
CPX0000        0     0     1422.5089 10068   312825.0000    Cuts: 2946   980728   99.55%
CPX0000        0     0     1433.7027 10257   312825.0000    Cuts: 2937  1046416   99.54%
CPX0000        0     0     1444.9103 10267   312825.0000    Cuts: 3045  1116630   99.54%
CPX0000        0     0     1455.4022 10376   312825.0000    Cuts: 3060  1184695   99.53%
CPX0000        0     0     1474.3469 10023   312825.0000    Cuts: 2840  1257493   99.53%
CPX0000        0     0     1483.4354 10092   312825.0000    Cuts: 2983  1328859   99.53%
CPX0000        0     0     1491.9124 10352   312825.0000    Cuts: 2833  1396016   99.52%
CPX0000        0     0     1504.9533 10018   312825.0000    Cuts: 2900  1463281   99.52%
CPX0000        0     0     1517.4072 10253   312825.0000    Cuts: 2962  1538983   99.51%
CPX0000        0     0     1526.5892 10607   312825.0000    Cuts: 2916  1610098   99.51%
CPX0000        0     0     1536.3928 10518   312825.0000    Cuts: 2894  1686395   99.51%
CPX0000        0     0     1543.6869 10490   312825.0000    Cuts: 3149  1754501   99.51%
CPX0000        0     0     1551.6747 10238   312825.0000    Cuts: 3080  1822309   99.50%
CPX0000        0     0     1558.6281 10148   312825.0000    Cuts: 2959  1897417   99.50%
CPX0000        0     0     1572.0215 10355   312825.0000    Cuts: 3246  1971925   99.50%
CPX0000        0     0     1581.8873 10328   312825.0000    Cuts: 3184  2043375   99.49%
CPX0000        0     0     1591.6540 10280   312825.0000    Cuts: 3000  2117142   99.49%
CPX0000        0     0     1604.2550 10206   312825.0000    Cuts: 3005  2185936   99.49%
CPX0000        0     0     1612.2593 10369   312825.0000    Cuts: 2908  2257652   99.48%
CPX0000        0     0     1620.2840 10609   312825.0000    Cuts: 2890  2328327   99.48%
CPX0000        0     0     1631.0814 10040   312825.0000    Cuts: 3033  2412145   99.48%
CPX0000        0     0     1637.2132  9933   312825.0000    Cuts: 2981  2488340   99.48%
CPX0000        0     0     1641.6470 10348   312825.0000    Cuts: 2993  2559370   99.48%
CPX0000        0     0     1655.7698 10448   312825.0000    Cuts: 2853  2639580   99.47%
CPX0000        0     0     1665.4374 10862   312825.0000    Cuts: 3132  2759644   99.47%
CPX0000        0     0     1676.2252 10638   312825.0000    Cuts: 2903  2846480   99.46%
CPX0000        0     0     1682.1386 10574   312825.0000    Cuts: 3051  2921792   99.46%
CPX0000        0     0     1694.7018 10672   312825.0000    Cuts: 3165  2995920   99.46%
CPX0000        0     0     1700.4395 10710   312825.0000    Cuts: 2820  3063356   99.46%
CPX0000        0     0     1713.2152 10492   312825.0000    Cuts: 2784  3128790   99.45%
CPX0000        0     0     1720.6051 10993   312825.0000    Cuts: 3013  3199628   99.45%
CPX0000        0     0     1725.6712 10933   312825.0000    Cuts: 2977  3273947   99.45%
CPX0000        0     0     1728.5339 10567   312825.0000    Cuts: 3009  3343429   99.45%
CPX0000        0     0     1733.4371 10657   312825.0000    Cuts: 2903  3428771   99.45%
CPX0000        0     0     1739.8843 10543   312825.0000    Cuts: 2778  3514943   99.44%
CPX0000        0     0     1743.1182 10706   312825.0000    Cuts: 2823  3594899   99.44%
CPX0000        0     0     1752.6463 10620   312825.0000    Cuts: 2702  3675183   99.44%
CPX0000        0     0     1758.9048 10787   312825.0000    Cuts: 2722  3756150   99.44%
CPX0000        0     0     1762.0500 11076   312825.0000    Cuts: 2928  3831832   99.44%
CPX0000        0     0     1772.2206 10733   312825.0000    Cuts: 2681  3913420   99.43%
CPX0000        0     0     1781.7506 10674   312825.0000    Cuts: 2682  3982353   99.43%
CPX0000        0     0     1789.4562 10480   312825.0000    Cuts: 2677  4058878   99.43%
CPX0000        0     0     1798.5196 10086   312825.0000    Cuts: 2907  4138475   99.43%
CPX0000        0     0     1806.6049 10281   312825.0000    Cuts: 2615  4207344   99.42%
CPX0000        0     0     1809.1273 10218   312825.0000    Cuts: 2592  4283072   99.42%
CPX0000        0     0     1818.2281 10215   312825.0000    Cuts: 2718  4372970   99.42%
CPX0000        0     0     1822.5982 10603   312825.0000    Cuts: 2841  4457638   99.42%
CPX0000        0     0     1828.2540 10454   312825.0000    Cuts: 2726  4533343   99.42%
CPX0000        0     0     1832.1356 10052   312825.0000    Cuts: 2858  4642870   99.41%
CPX0000        0     0     1835.9428  9913   312825.0000    Cuts: 2845  4718894   99.41%
CPX0000        0     0     1843.1382 10257   312825.0000    Cuts: 2643  4795865   99.41%
CPX0000        0     0     1849.3040 10274   312825.0000    Cuts: 2665  4872301   99.41%
CPX0000        0     0     1854.9008  9705   312825.0000    Cuts: 2884  4971351   99.41%
CPX0000        0     0     1858.2823  9908   312825.0000    Cuts: 3028  5057700   99.41%
CPX0000        0     0     1862.4483 10107   312825.0000    Cuts: 2792  5137169   99.40%
CPX0000        0     0     1868.2405 10207   312825.0000    Cuts: 2915  5210715   99.40%
CPX0000        0     0     1872.9118 10519   312825.0000    Cuts: 3106  5298817   99.40%
CPX0000        0     0     1874.9906 10301   312825.0000    Cuts: 2958  5379242   99.40%
CPX0000        0     0     1884.0965 10764   312825.0000    Cuts: 3070  5460065   99.40%
CPX0000        0     0     1892.8217 10551   312825.0000    Cuts: 3020  5541000   99.39%
CPX0000        0     0     1897.7351 10403   312825.0000    Cuts: 2527  5618428   99.39%
CPX0000        0     0     1904.9400 10381   312825.0000    Cuts: 2837  5688922   99.39%
CPX0000        0     0     1910.9564  9906   312825.0000    Cuts: 2721  5789087   99.39%
CPX0000        0     0     1914.8362  9566   312825.0000    Cuts: 2762  5873861   99.39%
CPX0000        0     0     1920.5737  9682   312825.0000    Cuts: 3133  5967453   99.39%
CPX0000        0     0     1923.8355  9997   312825.0000    Cuts: 2607  6048160   99.39%
CPX0000        0     0     1930.5702  9978   312825.0000    Cuts: 2472  6117591   99.38%
CPX0000        0     0     1934.5665  9498   312825.0000    Cuts: 2540  6227311   99.38%
CPX0000        0     0     1940.3326  9624   312825.0000    Cuts: 2556  6308513   99.38%
CPX0000        0     0     1943.5273  9504   312825.0000    Cuts: 3077  6441619   99.38%
CPX0000        0     0     1946.0890  9320   312825.0000    Cuts: 2710  6526405   99.38%
CPX0000        0     0     1949.8860  9763   312825.0000    Cuts: 2446  6611794   99.38%
CPX0000        0     0     1950.3079 10192   312825.0000    Cuts: 2952  6698303   99.38%
CPX0000        0     0     1955.7705  8111   312825.0000     Cuts: 738  6776860   99.37%
CPX0000        0     0     1957.0203  8969   312825.0000    Cuts: 3042  6843229   99.37%
CPX0000  Heuristic still looking.
CPX0000  Heuristic still looking.
CPX0000  Heuristic still looking.
CPX0000  *     0+    0                        47610.0000     1957.0203  6843229   95.89%
CPX0000  *     0+    0                         7010.0000     1957.0203  6843229   72.08%
CPX0000  *     0+    0                         6820.0000     1957.0203  6843229   71.30%
[1m[30m[ZEN] [0m21:17:32 [1m[34m   6820.00[1m[32m   71.30%
[0mCPX0000        0     2     1957.0203  8969     6820.0000     1957.0203  6843229   71.30%
CPX0000  Elapsed time = 76652.62 sec. (18289621.66 ticks, tree = 0.00 MB
CPX0000        1     3     1957.0203  7768     6820.0000     1957.0203  6960735   71.30%
CPX0000        2     4     1957.0203  8005     6820.0000     1957.0203  7000785   71.30%
CPX0000        3     5     1957.0203  7988     6820.0000     1957.0203  7043589   71.30%
CPX0000        4     6     1972.0203  7921     6820.0000     1957.0203  7083594   71.30%
CPX0000        5     7     1957.0203  7801     6820.0000     1957.0203  7094730   71.30%
CPX0000        6     8     1957.0203  7763     6820.0000     1957.0203  7108596   71.30%
CPX0000        7     9     1957.0203  7538     6820.0000     1957.0203  7118091   71.30%
CPX0000        8    10     1957.0203  7510     6820.0000     1957.0203  7129948   71.30%
CPX0000        9    11     1957.0203  7509     6820.0000     1957.0203  7138324   71.30%
CPX0000       10    12     1957.0243  7528     6820.0000     1957.0203  7180714   71.30%
CPX0000  Elapsed time = 80796.58 sec. (19022400.89 ticks, tree = 2.00 MB
CPX0000       11    13     1957.0217  7458     6820.0000     1957.0203  7214238   71.30%
CPX0000       13    15     1957.0217  7422     6820.0000     1957.0203  7225885   71.30%
CPX0000       14    16     1957.0257  7454     6820.0000     1957.0203  7249465   71.30%
CPX0000       15    17     1959.0211  7226     6820.0000     1957.0203  7278330   71.30%
CPX0000       16    18     1959.0211  7262     6820.0000     1957.0203  7304763   71.30%
CPX0000       17    19     1959.0610  7147     6820.0000     1957.0203  7324568   71.30%
CPX0000       19    21     1959.0610  7140     6820.0000     1957.0203  7339086   71.30%
CPX0000       20    22     1959.6671  7398     6820.0000     1957.0203  7351668   71.30%
CPX0000       21    23     1959.0610  7145     6820.0000     1957.0203  7355454   71.30%
CPX0000       22    24     1959.9323  7285     6820.0000     1957.0203  7381105   71.30%
CPX0000  Elapsed time = 82072.77 sec. (19290778.52 ticks, tree = 2.37 MB
CPX0000       23    25     1959.0610  7079     6820.0000     1957.0203  7422166   71.30%
CPX0000       24    26     1959.0610  7073     6820.0000     1957.0203  7437844   71.30%
CPX0000       25    27     1963.7428  7312     6820.0000     1957.0203  7483119   71.30%
CPX0000       26    28     1959.9415  7253     6820.0000     1957.0203  7498215   71.30%
CPX0000       27    29     1959.9415  7234     6820.0000     1957.0203  7505210   71.30%
CPX0000       29    31     1961.9661  7308     6820.0000     1957.0203  7534331   71.30%
CPX0000       30    32     1959.9415  7272     6820.0000     1957.0203  7549679   71.30%
CPX0000       31    33     1961.9661  7309     6820.0000     1957.0203  7587738   71.30%
CPX0000       32    34     1959.9415  7273     6820.0000     1957.0203  7597397   71.30%
CPX0000       33    35     1959.9426  7258     6820.0000     1957.0203  7618272   71.30%
CPX0000  Elapsed time = 84470.84 sec. (19780980.74 ticks, tree = 2.68 MB
CPX0000       34    36     1959.9426  7280     6820.0000     1957.0203  7634527   71.30%
CPX0000       35    37     1959.9998  7235     6820.0000     1957.0203  7637846   71.30%
CPX0000       36    38     1959.9998  7226     6820.0000     1957.0203  7640056   71.30%
CPX0000       37    39     1965.0404  7158     6820.0000     1957.0203  7650289   71.30%
CPX0000       38    40     1962.3405  7381     6820.0000     1957.0203  7684337   71.30%
CPX0000       39    41     1965.1078  7197     6820.0000     1957.0203  7713635   71.30%
CPX0000       40    42     1965.1752  7149     6820.0000     1957.0203  7741170   71.30%
CPX0000       41    43     1965.1752  7104     6820.0000     1957.0203  7742861   71.30%
CPX0000       42    44     1965.1752  7122     6820.0000     1957.0203  7748276   71.30%
CPX0000       43    45     1965.2923  7233     6820.0000     1957.0203  7756765   71.30%
CPX0000  Elapsed time = 84673.60 sec. (19837331.63 ticks, tree = 2.97 MB
CPX0000       44    46     1965.1752  7140     6820.0000     1957.0203  7761403   71.30%
CPX0000       45    47     1965.1779  7140     6820.0000     1957.0203  7768804   71.30%
CPX0000       46    48     1965.1752  7196     6820.0000     1957.0203  7793449   71.30%
CPX0000       47    49     1965.1752  7174     6820.0000     1957.0203  7834000   71.30%
CPX0000       49    51     1965.2635  7144     6820.0000     1957.0203  7868068   71.30%
CPX0000       50    52     1965.2635  7120     6820.0000     1957.0203  7869849   71.30%
CPX0000       51    53     1965.2635  7125     6820.0000     1957.0203  7872589   71.30%
CPX0000       52    54     1965.2635  7112     6820.0000     1957.0203  7875627   71.30%
CPX0000       53    55     1965.2635  7101     6820.0000     1957.0203  7881015   71.30%
CPX0000       54    56     1965.3354  7133     6820.0000     1957.0203  7889362   71.30%
CPX0000  Elapsed time = 85564.99 sec. (20036143.24 ticks, tree = 3.25 MB
CPX0000       55    57     1965.2635  7204     6820.0000     1957.0203  7900010   71.30%
CPX0000       56    58     1965.3354  7154     6820.0000     1957.0203  7918962   71.30%
CPX0000       57    59     1965.3354  7084     6820.0000     1957.0203  7951781   71.30%
CPX0000       58    60     1967.3724  6906     6820.0000     1957.0203  7954939   71.30%
CPX0000       59    61     1969.3006  7127     6820.0000     1957.0203  7966021   71.30%
CPX0000       60    62     1967.4686  6885     6820.0000     1957.0203  7993624   71.30%
CPX0000       61    63     1967.4686  6770     6820.0000     1957.0203  8003392   71.30%
CPX0000       62    64     1967.4686  6673     6820.0000     1957.0203  8005055   71.30%
CPX0000       63    65     1967.4686  6614     6820.0000     1957.0203  8005980   71.30%
CPX0000       64    66     1967.4686  6522     6820.0000     1957.0203  8008222   71.30%
CPX0000  Elapsed time = 86054.63 sec. (20151583.71 ticks, tree = 3.57 MB
CPX0000       65    67     1972.1131  6259     6820.0000     1957.0203  8014339   71.30%
CPX0000       66    68     1972.2366  6222     6820.0000     1957.0203  8016585   71.30%
CPX0000       67    69     1972.5700  6106     6820.0000     1957.0203  8020981   71.30%
CPX0000       68    70     1972.5700  6150     6820.0000     1957.0203  8030407   71.30%
CPX0000       69    71     1974.0204  6113     6820.0000     1957.0203  8044764   71.30%
CPX0000       70    72     1974.0204  6060     6820.0000     1957.0203  8047549   71.30%
CPX0000       71    73     1974.0204  5927     6820.0000     1957.0203  8057172   71.30%
CPX0000       72    74     1983.4819  5901     6820.0000     1957.0203  8066378   71.30%
CPX0000       73    75     1979.0204  5839     6820.0000     1957.0203  8070946   71.30%
CPX0000       74    76     1979.0204  5801     6820.0000     1957.0203  8077770   71.30%
CPX0000  Elapsed time = 86302.12 sec. (20201073.29 ticks, tree = 3.86 MB
CPX0000       75    77     1979.9362  5794     6820.0000     1957.0203  8083354   71.30%
CPX0000       76    78     1979.0204  5765     6820.0000     1957.0203  8101048   71.30%
CPX0000       77    79     1979.3525  5786     6820.0000     1957.0203  8114753   71.30%
CPX0000
CPX0000  GUB cover cuts applied:  569
CPX0000  Clique cuts applied:  497
CPX0000  Cover cuts applied:  7
CPX0000  Implied bound cuts applied:  19
CPX0000  Mixed integer rounding cuts applied:  78
CPX0000  Zero-half cuts applied:  5730
CPX0000  Gomory fractional cuts applied:  18
CPX0000
CPX0000  Root node processing (before b&c):
CPX0000    Real time             = 76652.48 sec. (18289541.04 ticks)
CPX0000  Sequential b&c:
CPX0000    Real time             = 9747.62 sec. (1930812.24 ticks)
CPX0000                            ------------
CPX0000  Total (root+branch&cut) = 86400.10 sec. (20220353.28 ticks)
H2 understaffing: 0
H3 shiftTypeSuccessions: 0
S1 optimalCoverage: 570
S2a consecutiveShift: 720 = (48,0 )
S2b consecutiveWorkingDays: 930 = ( 29,2 )
S3 consecutiveDaysOff: 810 = ( 10,17 )
S4 preferences: 250
S5 completeWeekend: 0
S6 totalAssignments: 3240
S7 totalWorkingWeekeends: 300
 

Cost Solution: 6820

       |M|T|W|T|F|S|S| |M|T|W|T|F|S|S| |M|T|W|T|F|S|S| |M|T|W|T|F|S|S|
------------------------------------------------------------------------
HN_0   |-|-|N|N|N|N|N| |-|-|-|-|L|L|L| |L|-|-|-|N|-|-| |-|E|E|E|E|-|-|
HN_1   |-|-|-|L|L|-|-| |-|-|D|D|-|-|-| |-|-|-|-|L|L|-| |-|-|-|-|-|-|-|
HN_2   |-|-|-|D|D|-|-| |-|-|-|D|D|-|-| |-|-|-|L|L|-|-| |D|D|-|-|-|-|E|
HN_3   |N|-|L|L|L|-|-| |L|L|L|L|L|-|-| |L|L|L|L|L|-|-| |-|-|D|D|E|E|D|
HN_4   |-|-|-|-|-|D|D| |L|L|-|-|-|-|-| |D|D|D|L|L|-|-| |-|-|-|-|D|D|D|
HN_5   |-|-|E|E|E|E|E| |-|-|-|-|-|-|-| |N|N|N|N|-|-|-| |-|L|L|L|L|-|-|
HN_6   |L|L|L|-|-|-|-| |N|N|N|N|N|-|-| |-|-|-|D|D|N|N| |N|N|N|-|-|-|-|
HN_7   |E|E|-|-|-|L|L| |-|-|-|-|E|E|L| |L|L|L|L|-|-|-| |L|L|L|L|-|-|-|
HN_8   |E|E|E|E|-|-|-| |N|N|N|N|N|-|-| |-|-|E|E|N|N|N| |N|-|-|-|-|D|L|
HN_9   |E|E|E|-|-|-|-| |E|E|E|E|E|-|-| |-|-|-|-|-|D|D| |D|-|-|-|-|-|-|
HN_10  |-|E|E|E|E|-|-| |-|D|D|D|D|-|-| |-|-|E|E|E|-|-| |-|L|L|L|L|-|-|
HN_11  |-|-|-|D|D|-|-| |E|E|-|-|-|-|-| |-|D|D|-|-|-|-| |-|-|-|E|E|N|N|
HN_12  |-|-|L|L|L|-|-| |-|-|-|-|-|D|D| |D|-|-|-|-|-|-| |N|N|N|N|N|-|-|
HN_13  |-|D|D|D|D|-|-| |-|D|D|E|E|-|-| |-|-|E|E|D|D|E| |E|-|-|-|E|E|E|
HN_14  |-|-|-|-|L|N|N| |-|-|-|-|-|-|-| |D|D|D|E|E|-|-| |-|-|L|L|L|-|-|
HN_15  |L|L|-|-|-|D|E| |D|D|-|-|-|L|L| |N|N|N|N|-|-|-| |D|D|D|D|-|-|-|
HN_16  |L|N|N|N|N|-|-| |L|L|L|-|-|D|D| |D|-|-|E|E|E|E| |E|-|-|D|D|E|E|
HN_17  |D|D|D|-|-|-|-| |-|-|D|D|D|-|-| |-|-|-|-|D|D|L| |L|-|-|-|-|-|-|
HN_18  |N|-|-|E|E|L|L| |L|-|-|N|N|N|N| |-|-|D|D|D|-|-| |E|E|E|E|E|-|-|
HN_19  |N|N|N|-|-|-|-| |D|D|E|E|-|-|-| |E|E|E|E|E|L|L| |-|-|-|D|D|L|L|
NU_20  |-|D|D|D|-|-|-| |L|L|L|L|L|-|-| |-|-|-|-|E|D|D| |-|-|-|-|L|L|L|
NU_21  |E|-|L|L|L|-|-| |-|D|D|N|N|N|N| |-|-|-|D|D|D|D| |-|-|L|L|L|-|-|
NU_22  |E|E|E|D|D|-|-| |E|E|E|E|E|-|-| |-|-|D|D|D|E|E| |-|-|N|N|N|N|N|
NU_23  |D|D|D|-|-|-|-| |L|L|L|L|-|-|-| |-|-|D|D|D|-|-| |-|-|-|-|-|N|N|
NU_24  |-|-|-|-|-|-|-| |L|L|L|L|L|-|-| |-|N|N|N|N|-|-| |-|-|D|D|D|-|-|
NU_25  |-|-|-|-|D|D|D| |-|-|-|D|D|E|E| |-|-|-|-|-|-|-| |D|D|D|D|D|-|-|
NU_26  |-|-|D|D|D|-|-| |N|N|N|N|N|-|-| |L|L|-|-|-|-|-| |L|L|-|-|-|-|D|
NU_27  |-|L|L|-|-|-|-| |-|-|-|D|D|-|-| |-|-|N|N|N|N|N| |-|-|-|-|-|N|N|
NU_28  |E|-|-|-|-|L|L| |L|L|-|-|-|-|-| |D|D|D|-|-|-|-| |-|-|D|D|D|-|-|
NU_29  |L|-|-|-|-|D|D| |D|D|D|D|-|-|-| |E|E|E|E|E|-|-| |-|-|E|E|D|D|L|
NU_30  |E|E|D|D|-|-|-| |-|-|N|N|N|N|N| |-|-|-|-|-|N|N| |-|-|-|-|-|-|-|
NU_31  |N|N|N|N|N|-|-| |-|-|-|E|E|E|L| |L|-|-|-|-|-|-| |E|E|E|E|E|-|-|
NU_32  |N|N|N|-|-|E|E| |E|-|L|L|L|-|-| |E|E|E|E|E|-|-| |D|D|D|-|-|L|L|
NU_33  |-|-|E|E|D|-|-| |E|E|L|L|L|-|-| |N|N|N|N|N|-|-| |N|N|N|N|N|-|-|
NU_34  |-|-|N|N|N|N|-| |-|-|-|-|D|D|-| |-|-|-|-|-|-|L| |L|-|-|-|-|-|-|
NU_35  |-|-|D|D|D|E|E| |E|E|-|-|-|E|E| |E|L|L|L|-|-|-| |-|E|E|E|E|-|-|
NU_36  |L|L|L|-|-|-|-| |D|D|E|E|-|-|-| |D|D|D|D|D|-|-| |-|-|-|-|-|E|E|
NU_37  |D|D|-|-|-|N|N| |N|N|-|-|-|-|-| |N|N|N|N|-|-|-| |-|N|N|N|N|-|-|
NU_38  |L|L|L|-|-|N|N| |N|N|N|-|-|-|-| |E|E|D|D|D|-|-| |N|N|N|N|N|-|-|
NU_39  |D|-|-|-|L|L|L| |L|-|-|-|-|E|E| |E|L|L|L|L|-|-| |-|-|L|L|L|L|L|
CT_40  |-|-|-|L|L|-|-| |-|-|-|-|N|N|N| |N|N|-|-|-|-|-| |-|-|D|D|-|-|-|
CT_41  |L|L|-|-|-|L|L| |-|-|E|E|-|-|-| |-|-|L|L|-|-|-| |D|D|-|-|-|-|-|
CT_42  |D|-|L|L|L|-|-| |E|E|E|L|L|-|-| |N|N|N|N|N|-|-| |L|L|L|L|L|-|-|
CT_43  |-|-|-|D|D|-|-| |-|-|-|E|E|-|-| |-|-|-|E|E|-|-| |-|-|N|N|N|N|-|
CT_44  |-|-|-|-|-|E|E| |E|-|-|-|-|-|-| |D|D|D|L|L|-|-| |-|E|E|D|D|-|-|
CT_45  |N|N|N|N|-|-|-| |-|N|N|N|N|-|-| |-|-|E|E|E|E|E| |-|-|-|-|D|D|D|
CT_46  |-|-|L|L|L|-|-| |-|-|-|N|N|N|N| |N|-|-|-|-|-|-| |N|N|N|N|N|-|-|
CT_47  |-|-|E|E|E|-|-| |N|N|N|N|N|-|-| |D|D|D|-|-|E|E| |E|E|E|-|-|N|N|
CT_48  |-|-|-|-|D|D|D| |-|-|-|-|E|-|-| |-|-|L|L|L|-|-| |-|-|E|E|E|-|-|
CT_49  |N|N|N|N|N|-|-| |L|L|L|L|L|-|-| |N|N|N|N|N|-|-| |D|D|D|D|D|-|-|
CT_50  |E|D|D|-|-|-|-| |E|E|L|L|-|-|-| |L|L|L|L|-|-|-| |L|L|L|L|-|-|-|
CT_51  |L|L|L|-|-|-|-| |L|L|L|L|-|-|-| |-|-|-|-|N|N|N| |N|-|-|-|-|-|-|
CT_52  |-|L|L|L|L|-|-| |-|-|L|L|L|L|L| |-|-|-|-|D|D|D| |D|D|D|-|-|-|-|
CT_53  |E|E|E|-|-|-|-| |-|-|-|-|E|L|L| |L|L|-|-|-|-|-| |D|D|D|-|-|-|-|
CT_54  |N|N|-|-|E|E|E| |E|-|-|N|N|N|N| |-|-|E|L|L|-|-| |E|E|E|L|L|-|-|
CT_55  |-|E|E|-|-|-|-| |-|-|-|L|L|-|-| |E|E|-|-|-|-|-| |L|L|-|-|-|-|-|
CT_56  |-|-|-|-|-|-|-| |D|D|-|-|-|-|-| |D|D|-|-|-|-|-| |-|-|L|L|-|-|E|
CT_57  |-|-|-|E|E|E|E| |E|-|-|-|-|-|-| |-|L|L|L|L|-|-| |-|-|D|D|D|-|-|
CT_58  |-|-|L|L|-|-|-| |-|-|-|-|E|E|-| |-|D|D|-|-|-|-| |E|E|-|-|-|-|-|
CT_59  |-|E|E|E|E|-|-| |-|D|D|D|D|D|D| |-|-|-|-|-|-|-| |D|D|D|L|L|-|-|
CT_60  |L|L|L|-|-|-|-| |N|N|N|N|-|-|-| |-|-|E|E|E|-|-| |-|-|-|-|-|E|E|
CT_61  |D|D|-|-|-|-|-| |-|E|E|-|-|-|-| |D|D|-|-|-|-|E| |E|E|-|-|-|-|-|
CT_62  |D|D|E|E|E|-|-| |N|N|N|N|N|-|-| |N|N|N|N|N|-|-| |N|N|N|N|N|-|-|
CT_63  |D|D|D|D|-|-|-| |D|D|D|D|D|-|-| |-|-|D|D|D|D|D| |D|-|-|-|-|D|D|
CT_64  |N|N|N|-|-|-|-| |-|L|L|L|-|-|-| |N|N|N|N|-|-|-| |-|-|-|D|D|D|D|
CT_65  |N|N|N|N|N|-|-| |D|D|D|E|E|-|-| |E|E|E|-|-|N|N| |-|-|-|E|E|E|D|
CT_66  |N|-|-|-|N|N|N| |N|-|-|-|D|D|D| |D|D|D|-|-|-|-| |N|N|N|N|N|-|-|
CT_67  |D|D|-|-|-|-|-| |-|E|E|-|-|-|-| |-|E|E|E|-|-|-| |-|-|-|-|E|E|N|
CT_68  |-|-|-|-|E|N|N| |N|N|-|-|-|-|-| |E|E|E|-|-|-|-| |D|D|D|-|-|-|-|
CT_69  |-|-|D|D|D|-|-| |-|-|-|-|D|D|D| |E|E|-|-|-|-|-| |-|L|L|L|-|-|-|
CT_70  |E|E|D|D|D|-|-| |-|-|E|E|E|E|L| |-|-|-|D|D|L|L| |-|E|E|E|E|-|-|
CT_71  |E|E|-|-|-|-|-| |D|D|-|-|-|-|-| |-|E|-|-|-|L|L| |-|-|-|L|L|-|-|
CT_72  |-|-|D|D|D|-|-| |-|-|-|-|-|L|L| |-|-|-|-|-|-|-| |N|N|N|N|-|-|-|
CT_73  |E|E|-|-|-|-|D| |D|-|-|-|-|-|-| |L|L|-|-|-|L|L| |-|-|-|-|-|-|-|
CT_74  |-|-|-|L|L|-|-| |-|-|-|-|-|E|E| |E|-|-|D|D|-|-| |-|-|-|E|E|-|-|
CT_75  |-|N|N|N|N|-|-| |-|D|D|D|D|-|-| |-|L|L|L|L|-|-| |-|L|-|-|-|-|-|
CT_76  |-|-|N|N|N|N|N| |-|-|E|E|E|-|-| |N|N|N|N|N|-|-| |L|L|L|-|L|L|L|
CT_77  |N|N|N|N|-|-|-| |E|E|D|D|-|-|-| |L|L|L|L|L|-|-| |N|N|N|N|N|-|-|
CT_78  |L|L|L|-|-|-|-| |N|N|N|N|N|-|-| |E|E|E|E|E|-|-| |E|N|N|N|N|-|-|
CT_79  |E|E|-|-|-|-|L| |L|-|-|-|-|-|-| |D|D|-|-|-|-|-| |-|E|E|-|-|-|-|
TR_80  |-|D|D|E|E|-|-| |-|-|D|D|D|D|L| |L|-|-|-|-|E|E| |E|E|E|-|-|-|-|
TR_81  |E|E|E|-|-|-|-| |D|D|D|D|-|-|-| |D|D|D|D|-|-|-| |-|-|-|-|E|E|E|
TR_82  |-|-|-|-|-|E|E| |N|-|-|-|-|-|-| |D|D|E|E|-|-|-| |-|N|N|N|N|-|-|
TR_83  |D|-|-|-|-|L|L| |L|N|N|N|N|-|-| |-|L|L|L|L|-|-| |-|L|-|-|-|-|-|
TR_84  |E|E|-|-|-|-|-| |N|N|N|N|-|-|-| |L|L|L|L|L|-|-| |-|N|N|N|N|-|-|
TR_85  |D|D|E|E|E|-|-| |-|-|-|L|L|-|-| |-|-|-|-|D|D|-| |-|-|D|D|-|-|-|
TR_86  |-|-|-|-|-|D|D| |D|D|-|-|-|-|-| |N|N|N|N|-|-|-| |D|D|D|-|-|-|-|
TR_87  |-|L|L|L|L|-|-| |-|-|L|L|N|N|N| |N|-|-|-|-|E|E| |E|E|E|-|-|-|-|
TR_88  |-|L|L|N|N|N|N| |N|-|-|-|-|E|E| |E|E|E|-|-|-|-| |L|L|L|L|-|-|-|
TR_89  |-|-|E|E|E|-|-| |N|N|N|N|N|-|-| |D|D|D|-|-|N|N| |N|N|-|-|D|D|D|
TR_90  |N|N|-|-|-|-|-| |D|D|E|E|-|-|-| |N|N|N|N|N|-|-| |-|-|-|D|D|N|N|
TR_91  |L|-|-|N|N|N|N| |N|-|-|-|N|N|N| |N|N|-|E|E|-|-| |N|N|N|N|N|-|-|
TR_92  |-|-|-|-|-|-|E| |E|-|-|-|-|-|-| |-|D|D|D|D|-|-| |D|D|-|-|-|-|-|
TR_93  |-|-|D|D|D|-|-| |-|-|-|D|D|D|E| |E|-|-|-|-|-|-| |L|L|L|-|-|-|-|
TR_94  |D|D|D|-|-|-|-| |-|L|L|L|-|-|-| |-|-|L|L|N|N|N| |N|-|-|-|-|-|-|
TR_95  |-|D|D|D|-|-|-| |-|-|-|-|L|L|L| |-|-|-|L|L|-|-| |L|L|-|-|-|-|-|
TR_96  |-|N|N|N|N|-|-| |-|-|E|E|E|E|E| |-|-|-|-|E|E|D| |D|D|D|-|-|-|-|
TR_97  |L|-|-|D|D|-|-| |E|E|E|E|E|-|-| |-|L|N|-|-|L|L| |L|-|-|D|D|D|L|
TR_98  |-|E|E|L|L|-|-| |-|L|L|L|L|-|-| |-|-|E|E|E|E|D| |D|-|-|-|L|L|L|
TR_99  |D|D|E|E|-|-|-| |E|E|E|E|-|-|-| |-|E|E|E|E|-|-| |-|D|D|E|E|-|-|
TR_100 |N|N|N|N|N|-|-| |E|E|D|D|D|-|-| |L|L|L|-|N|N|N| |N|-|-|N|N|N|N|
TR_101 |N|N|N|N|N|-|-| |-|L|-|-|D|D|D| |-|-|D|D|D|-|-| |-|-|E|E|L|L|N|
TR_102 |-|-|-|L|L|-|-| |-|-|-|L|L|-|-| |-|-|-|-|L|L|-| |-|-|L|L|L|-|-|
TR_103 |-|-|-|-|-|E|E| |L|L|-|-|-|-|-| |L|L|L|N|-|-|-| |-|-|D|D|D|-|-|
TR_104 |L|L|-|-|D|D|L| |L|L|-|-|-|-|-| |D|D|D|L|L|-|-| |L|L|L|-|-|E|E|
TR_105 |N|N|N|-|-|-|-| |N|N|N|N|-|-|-| |E|E|E|E|-|-|-| |L|L|L|L|-|-|-|
TR_106 |E|-|-|E|D|D|D| |-|-|E|E|E|-|-| |E|E|D|D|D|-|-| |E|E|E|E|E|-|-|
TR_107 |L|L|L|L|-|-|-| |D|D|D|E|E|-|-| |N|N|N|N|N|-|-| |-|E|E|E|E|E|D|
TR_108 |E|E|-|-|-|-|-| |-|-|L|L|-|-|-| |-|-|-|-|D|D|-| |-|-|E|E|-|-|-|
TR_109 |L|L|-|-|-|E|E| |E|E|L|N|-|-|-| |-|E|-|-|-|D|L| |N|N|N|N|-|-|-|


Hard constraint violations
--------------------------

Minimal coverage constraints: 0
Required skill constraints: 0
Illegal shift type succession constraints: 0
Single assignment per day: 0


Cost per constraint type
------------------------

Total assignment constraints: 3240
Consecutive constraints: 1650
Non working days constraints: 810
Preferences: 250
Max working weekend: 300
Complete weekends: 0
Optimal coverage constraints: 570

------------------------

Total cost: 6820
